W=8;
H=8;

MAX_TIME=12;
MAX_TRACKS=15;

TARGET=(4,8);

TRAINS=[(4,4,RIGHT),(6,3,DOWN),(1,5,DOWN)];

INIT_POS=[
(1,5,STRAIGHT_TD),
(4,4,STRAIGHT_RL),
(4,8,STRAIGHT_RL),
(6,3,STRAIGHT_TD),
];
TUNNEL_PAIRS=[
  (4, 1, RIGHT, 8, 5, LEFT),
  (1, 7, DOWN, 8, 1, RIGHT),
];

GATES=[];
ACTIVATIONS=[];

DSWITCHES=[];

STATIONS=[];
